5758973192016813321509,5,1,2,09,9,1,2,012,3,1,2,03,11,1,2,03,1,1,2,09,14,1,2,03,15,1,2,03,15,1,2,010,11,1,2,05,10,1,2,05,12,1,2,015,11,1,2,06,12,1,2,05,14,1,2,01,3,1,2,02,13,1,2,04,14,1,2,02,11,1,2,09,10,1,2,05,13,1,2,015,14,1,2,015,13,1,2,06,15,1,2,07,14,1,2,08,7,1,2,012,14,1,2,01,8,1,2,015,13,1,2,014,5,1,2,09,5,1,2,05,13,1,2,06,5,1,2,010,3,1,2,02,4,1,2,09,13,1,2,011,7,1,2,010,11,1,2,05,4,1,2,04,11,1,2,02,8,1,2,010,5,1,2,015,10,1,2,08,10,1,2,05,3,1,2,010,12,1,2,07,15,1,2,013,8,1,2,08,2,1,2,015,3,1,2,02,8,1,2,0